c Generated map
c Size: 9 * 9, weights in range: 1 to 10, walls: True, with ratio 0.05
c dim 1 of 8
c
p sp 81 131
c graph contains 81 nodes and 131 arcs
c
a 1 10 3
a 10 1 3
a 1 2 4
a 2 1 4
a 2 11 1
a 11 2 1
a 2 3 7
a 3 2 7
a 3 12 5
a 12 3 5
a 3 4 5
a 4 3 5
a 4 13 10
a 13 4 10
a 4 5 2
a 5 4 2
a 5 14 2
a 14 5 2
a 5 6 5
a 6 5 5
a 6 15 8
a 15 6 8
a 6 7 1
a 7 6 1
a 7 16 3
a 16 7 3
a 7 8 4
a 8 7 4
a 8 17 4
a 17 8 4
a 10 19 4
a 19 10 4
a 10 11 2
a 11 10 2
a 11 20 1
a 20 11 1
a 11 12 5
a 12 11 5
a 12 21 2
a 21 12 2
a 12 13 10
a 13 12 10
a 13 22 3
a 22 13 3
a 13 14 5
a 14 13 5
a 14 23 2
a 23 14 2
a 14 15 4
a 15 14 4
a 15 24 4
a 24 15 4
a 15 16 6
a 16 15 6
a 16 25 2
a 25 16 2
a 16 17 6
a 17 16 6
a 17 26 5
a 26 17 5
a 17 18 6
a 18 17 6
a 18 27 9
a 27 18 9
a 19 28 1
a 28 19 1
a 19 20 8
a 20 19 8
a 20 21 5
a 21 20 5
a 21 30 7
a 30 21 7
a 21 22 4
a 22 21 4
a 22 31 1
a 31 22 1
a 22 23 4
a 23 22 4
a 23 32 8
a 32 23 8
a 23 24 9
a 24 23 9
a 24 33 10
a 33 24 10
a 24 25 5
a 25 24 5
a 25 34 10
a 34 25 10
a 25 26 3
a 26 25 3
a 26 35 10
a 35 26 10
a 26 27 1
a 27 26 1
a 27 36 10
a 36 27 10
a 28 37 6
a 37 28 6
a 30 39 5
a 39 30 5
a 30 31 9
a 31 30 9
a 31 40 2
a 40 31 2
a 31 32 5
a 32 31 5
a 32 41 8
a 41 32 8
a 32 33 2
a 33 32 2
a 33 42 8
a 42 33 8
a 33 34 3
a 34 33 3
a 34 43 3
a 43 34 3
a 34 35 7
a 35 34 7
a 35 44 5
a 44 35 5
a 35 36 10
a 36 35 10
a 36 45 4
a 45 36 4
a 37 38 7
a 38 37 7
a 38 47 10
a 47 38 10
a 38 39 7
a 39 38 7
a 39 48 6
a 48 39 6
a 39 40 5
a 40 39 5
a 40 49 2
a 49 40 2
a 40 41 1
a 41 40 1
a 41 50 10
a 50 41 10
a 41 42 4
a 42 41 4
a 42 51 8
a 51 42 8
a 42 43 7
a 43 42 7
a 43 52 10
a 52 43 10
a 43 44 9
a 44 43 9
a 44 53 4
a 53 44 4
a 44 45 3
a 45 44 3
a 45 54 6
a 54 45 6
a 47 56 1
a 56 47 1
a 47 48 7
a 48 47 7
a 48 57 5
a 57 48 5
a 48 49 2
a 49 48 2
a 49 58 6
a 58 49 6
a 49 50 4
a 50 49 4
a 50 59 1
a 59 50 1
a 50 51 5
a 51 50 5
a 51 60 1
a 60 51 1
a 51 52 6
a 52 51 6
a 52 61 1
a 61 52 1
a 52 53 6
a 53 52 6
a 53 62 7
a 62 53 7
a 53 54 4
a 54 53 4
a 54 63 2
a 63 54 2
a 55 64 6
a 64 55 6
a 55 56 5
a 56 55 5
a 56 65 4
a 65 56 4
a 56 57 4
a 57 56 4
a 57 66 6
a 66 57 6
a 57 58 9
a 58 57 9
a 58 67 2
a 67 58 2
a 58 59 1
a 59 58 1
a 59 60 6
a 60 59 6
a 60 69 3
a 69 60 3
a 60 61 2
a 61 60 2
a 61 70 1
a 70 61 1
a 61 62 2
a 62 61 2
a 62 71 10
a 71 62 10
a 62 63 4
a 63 62 4
a 63 72 5
a 72 63 5
a 64 73 7
a 73 64 7
a 64 65 5
a 65 64 5
a 65 74 7
a 74 65 7
a 65 66 2
a 66 65 2
a 66 75 2
a 75 66 2
a 66 67 2
a 67 66 2
a 67 76 2
a 76 67 2
a 69 78 6
a 78 69 6
a 69 70 8
a 70 69 8
a 70 79 2
a 79 70 2
a 70 71 2
a 71 70 2
a 71 80 1
a 80 71 1
a 71 72 5
a 72 71 5
a 72 81 7
a 81 72 7
a 73 74 3
a 74 73 3
a 74 75 2
a 75 74 2
a 75 76 1
a 76 75 1
a 76 77 10
a 77 76 10
a 77 78 5
a 78 77 5
a 78 79 2
a 79 78 2
a 79 80 5
a 80 79 5
a 80 81 9
a 81 80 9
